Fe 
 1.0000000000000000
     3.2634177003691449    0.0000000000000000    0.0000000000000000
     0.0000000000000000    3.2634177003691449    0.0000000000000000
     0.0000000000000000    0.0000000000000000    3.2634177003691449
 Fe 
   4
Cartesian
  0.0000000000000000  0.0000000000000000  0.0000000000000000
  1.6317088501845725  1.6317088501845725  0.0000000000000000
  1.6317088501845725  0.0000000000000000  1.6317088501845725
  0.0000000000000000  1.6317088501845725  1.6317088501845725
