Fe 
 1.0000000000000000
     3.1981317567338428    0.0000000000000000    0.0000000000000000
     0.0000000000000000    3.1981317567338428    0.0000000000000000
     0.0000000000000000    0.0000000000000000    3.1981317567338428
 Fe 
   4
Cartesian
  0.0000000000000000  0.0000000000000000  0.0000000000000000
  1.5990658783669214  1.5990658783669214  0.0000000000000000
  1.5990658783669214  0.0000000000000000  1.5990658783669214
  0.0000000000000000  1.5990658783669214  1.5990658783669214
