Pd Ir Pt Cu 
 1.0000000000000000
     3.8660000000000001    0.0000000000000000    0.0000000000000000
     0.0000000000000000    3.8660000000000001    0.0000000000000000
     0.0000000000000000    0.0000000000000000    3.8660000000000001
 Pd  Ir  Pt  Cu 
   1   1   1   1
Cartesian
  0.0000000000000000  0.0000000000000000  0.0000000000000000
  1.9330000000000001  1.9330000000000001  0.0000000000000000
  1.9330000000000001  0.0000000000000000  1.9330000000000001
  0.0000000000000000  1.9330000000000001  1.9330000000000001
