Fe                                      
   1.00000000000000     
     2.3849999999999998    0.0000000000000000    0.0000000000000000
    -1.1924999999999999    2.0654705880258857    0.0000000000000000
     0.0000000000000000    0.0000000000000000    3.9830000000000001
   Fe
     2
Direct
  0.0000000000000000  0.0000000000000000  0.0000000000000000
  0.3333333333333357  0.6666666666666643  0.5000000000000000
 
  0.00000000E+00  0.00000000E+00  0.00000000E+00
  0.00000000E+00  0.00000000E+00  0.00000000E+00
