Fe 
 1.0000000000000000
     2.3849999999999998    0.0000000000000000    0.0000000000000000
    -1.1924999999999999    2.0654705880258857    0.0000000000000000
     0.0000000000000000    0.0000000000000000    3.9830000000000001
 Fe 
   2
Cartesian
  0.0000000000000000  0.0000000000000000  0.0000000000000000
  0.0000000000000000  1.3769803920172574  1.9915000000000000
