INCAR created by Atomic Simulation Environment
 ENCUT = 280.000000
 SIGMA = 0.200000
 EDIFF = 1.00e-06
 GGA = PE
 PREC = normal
 IBRION = -1
 ICHARG = 1
 ISMEAR = 1
 KPAR = 1
 NBANDS = 30
 NSW = 0
 NCORE = 1
 LCHARG = .TRUE.
