Fe 
 1.0000000000000000
     2.2368000000000001    0.0000000000000000    0.0000000000000000
    -1.1184000000000005    1.9371256231850320    0.0000000000000000
     0.0000000000000000    0.0000000000000000    4.0934399999999993
 Fe 
   2
Cartesian
  0.0000000000000000  0.0000000000000000  0.0000000000000000
 -0.0000000000000000  1.2914170821233548  2.0467199999999997
