Fe 
 1.0000000000000000
     3.3866804801819361    0.0000000000000000    0.0000000000000000
     0.0000000000000000    3.3866804801819361    0.0000000000000000
     0.0000000000000000    0.0000000000000000    3.3866804801819361
 Fe 
   4
Cartesian
  0.0000000000000000  0.0000000000000000  0.0000000000000000
  1.6933402400909681  1.6933402400909681  0.0000000000000000
  1.6933402400909681  0.0000000000000000  1.6933402400909681
  0.0000000000000000  1.6933402400909681  1.6933402400909681
