Fe 
 1.0000000000000000
     2.2368000000000001    0.0000000000000000    0.0000000000000000
    -1.1184000000000005    1.9371256231850320    0.0000000000000000
     0.0000000000000000    0.0000000000000000    3.9753600000000002
 Fe 
   2
Cartesian
  0.0000000000000000  0.0000000000000000  0.0000000000000000
 -0.0000000000000001  1.2914170821233548  1.9876800000000001
