Fe                                      
   1.00000000000000     
     3.6609469714953375    0.0000000000000000    0.0000000000000000
     0.0000000000000000    3.6609469714953375    0.0000000000000000
     0.0000000000000000    0.0000000000000000    3.6609469714953375
   Fe
     4
Direct
  0.0000000000000000  0.0000000000000000  0.0000000000000000
  0.5000000000000000  0.5000000000000000  0.0000000000000000
  0.5000000000000000  0.0000000000000000  0.5000000000000000
  0.0000000000000000  0.5000000000000000  0.5000000000000000
 
  0.00000000E+00  0.00000000E+00  0.00000000E+00
  0.00000000E+00  0.00000000E+00  0.00000000E+00
  0.00000000E+00  0.00000000E+00  0.00000000E+00
  0.00000000E+00  0.00000000E+00  0.00000000E+00
