Fe 
 1.0000000000000000
     3.6609469714953375    0.0000000000000000    0.0000000000000000
     0.0000000000000000    3.6609469714953375    0.0000000000000000
     0.0000000000000000    0.0000000000000000    3.6609469714953375
 Fe 
   4
Cartesian
  0.0000000000000000  0.0000000000000000  0.0000000000000000
  1.8304734857476688  1.8304734857476688  0.0000000000000000
  1.8304734857476688  0.0000000000000000  1.8304734857476688
  0.0000000000000000  1.8304734857476688  1.8304734857476688
