Fe                                      
   1.00000000000000     
     2.3766000000000003    0.0000000000000000    0.0000000000000000
    -1.1883000000000006    2.0581959746340965    0.0000000000000000
     0.0000000000000000    0.0000000000000000    4.2238200000000008
   Fe
     2
Direct
  0.0000000000000000  0.0000000000000000  0.0000000000000000
  0.3333333333333357  0.6666666666666643  0.5000000000000000
 
  0.00000000E+00  0.00000000E+00  0.00000000E+00
  0.00000000E+00  0.00000000E+00  0.00000000E+00
