Fe 
 1.0000000000000000
     2.3300000000000001    0.0000000000000000    0.0000000000000000
    -1.1650000000000005    2.0178391908177415    0.0000000000000000
     0.0000000000000000    0.0000000000000000    4.2229999999999999
 Fe 
   2
Cartesian
  0.0000000000000000  0.0000000000000000  0.0000000000000000
  0.0000000000000015  1.3452261272118280  2.1115000000000013
