Fe 
 1.0000000000000000
     2.3766000000000003    0.0000000000000000    0.0000000000000000
    -1.1883000000000006    2.0581959746340965    0.0000000000000000
     0.0000000000000000    0.0000000000000000    4.0565400000000000
 Fe 
   2
Cartesian
  0.0000000000000000  0.0000000000000000  0.0000000000000000
  0.0000000000000020  1.3721306497560644  2.0282700000000009
