Fe 
 1.0000000000000000
     3.3261910655853169    0.0000000000000000    0.0000000000000000
     0.0000000000000000    3.3261910655853169    0.0000000000000000
     0.0000000000000000    0.0000000000000000    3.3261910655853169
 Fe 
   4
Cartesian
  0.0000000000000000  0.0000000000000000  0.0000000000000000
  1.6630955327926584  1.6630955327926584  0.0000000000000000
  1.6630955327926584  0.0000000000000000  1.6630955327926584
  0.0000000000000000  1.6630955327926584  1.6630955327926584
