Fe                                      
   1.00000000000000     
     2.3999000000000001    0.0000000000000000    0.0000000000000000
    -1.1999500000000005    2.0783743665422740    0.0000000000000000
     0.0000000000000000    0.0000000000000000    4.2652299999999999
   Fe
     2
Direct
  0.0000000000000000  0.0000000000000000  0.0000000000000000
  0.3333333333333357  0.6666666666666643  0.5000000000000000
 
  0.00000000E+00  0.00000000E+00  0.00000000E+00
  0.00000000E+00  0.00000000E+00  0.00000000E+00
