Fe 
 1.0000000000000000
     2.3067000000000002    0.0000000000000000    0.0000000000000000
    -1.1533500000000005    1.9976607989095645    0.0000000000000000
     0.0000000000000000    0.0000000000000000    4.1807699999999999
 Fe 
   2
Cartesian
  0.0000000000000000  0.0000000000000000  0.0000000000000000
  0.0000000000000011  1.3317738659397098  2.0903850000000013
