Fe                                      
   1.00000000000000     
     2.4232000000000000    0.0000000000000000    0.0000000000000000
    -1.2116000000000005    2.0985527584504515    0.0000000000000000
     0.0000000000000000    0.0000000000000000    4.1787200000000002
   Fe
     2
Direct
  0.0000000000000000  0.0000000000000000  0.0000000000000000
  0.3333333333333357  0.6666666666666643  0.5000000000000000
 
  0.00000000E+00  0.00000000E+00  0.00000000E+00
  0.00000000E+00  0.00000000E+00  0.00000000E+00
