Fe 
 1.0000000000000000
     2.4232000000000000    0.0000000000000000    0.0000000000000000
    -1.2116000000000005    2.0985527584504515    0.0000000000000000
     0.0000000000000000    0.0000000000000000    4.1787200000000002
 Fe 
   2
Cartesian
  0.0000000000000000  0.0000000000000000  0.0000000000000000
  0.0000000000000017  1.3990351723003007  2.0893600000000006
