Fe 
 1.0000000000000000
     2.2833999999999999    0.0000000000000000    0.0000000000000000
    -1.1417000000000004    1.9774824070013868    0.0000000000000000
     0.0000000000000000    0.0000000000000000    4.0983599999999987
 Fe 
   2
Cartesian
  0.0000000000000000  0.0000000000000000  0.0000000000000000
  0.0000000000000006  1.3183216046675914  2.0491800000000002
