Fe 
 1.0000000000000000
     2.2833999999999999    0.0000000000000000    0.0000000000000000
    -1.1417000000000004    1.9774824070013868    0.0000000000000000
     0.0000000000000000    0.0000000000000000    3.8974599999999993
 Fe 
   2
Cartesian
  0.0000000000000000  0.0000000000000000  0.0000000000000000
  0.0000000000000004  1.3183216046675914  1.9487300000000001
