Cu 
 1.0000000000000000
     3.7523382196838946    0.0000000000000000    0.0000000000000000
     0.0000000000000000    3.7523382196838946    0.0000000000000000
     0.0000000000000000    0.0000000000000000    3.7523382196838946
 Cu 
   4
Cartesian
  0.0000000000000000  0.0000000000000000  0.0000000000000000
  1.8761691098419471  1.8761691098419471  0.0000000000000000
  1.8761691098419471  0.0000000000000000  1.8761691098419471
  0.0000000000000000  1.8761691098419471  1.8761691098419471
