Cu 
 1.0000000000000000
     3.8083515257789382    0.0000000000000000    0.0000000000000000
     0.0000000000000000    3.8083515257789382    0.0000000000000000
     0.0000000000000000    0.0000000000000000    3.8083515257789382
 Cu 
   4
Cartesian
  0.0000000000000000  0.0000000000000000  0.0000000000000000
  1.9041757628894691  1.9041757628894691  0.0000000000000000
  1.9041757628894691  0.0000000000000000  1.9041757628894691
  0.0000000000000000  1.9041757628894691  1.9041757628894691
