Cu 
 1.0000000000000000
     3.5095539130414641    0.0000000000000000    0.0000000000000000
     0.0000000000000000    3.5095539130414641    0.0000000000000000
     0.0000000000000000    0.0000000000000000    3.5095539130414641
 Cu 
   4
Cartesian
  0.0000000000000000  0.0000000000000000  0.0000000000000000
  1.7547769565207321  1.7547769565207321  0.0000000000000000
  1.7547769565207321  0.0000000000000000  1.7547769565207321
  0.0000000000000000  1.7547769565207321  1.7547769565207321
