Fe                                      
   1.00000000000000     
     2.3900000000000001    0.0000000000000000    0.0000000000000000
    -1.1950000000000001    2.0698007150448086    0.0000000000000000
     0.0000000000000000    0.0000000000000000    3.9076000000000000
   Fe
     2
Direct
  0.0000000000000000  0.0000000000000000  0.0000000000000000
  0.3333333333333357  0.6666666666666643  0.5000000000000000
 
  0.00000000E+00  0.00000000E+00  0.00000000E+00
  0.00000000E+00  0.00000000E+00  0.00000000E+00
