KPOINTS created by Atomic Simulation Environment
0
Monkhorst-Pack
13 13 13 
0 0 0
