Fe 
 1.0000000000000000
     2.3900000000000001    0.0000000000000000    0.0000000000000000
    -1.1950000000000001    2.0698007150448086    0.0000000000000000
     0.0000000000000000    0.0000000000000000    3.9076000000000000
 Fe 
   2
Cartesian
  0.0000000000000000  0.0000000000000000  0.0000000000000000
  0.0000000000000000  1.3798671433632059  1.9538000000000000
