Fe 
 1.0000000000000000
     3.5562906769967677    0.0000000000000000    0.0000000000000000
     0.0000000000000000    3.5562906769967677    0.0000000000000000
     0.0000000000000000    0.0000000000000000    3.5562906769967677
 Fe 
   4
Cartesian
  0.0000000000000000  0.0000000000000000  0.0000000000000000
  1.7781453384983839  1.7781453384983839  0.0000000000000000
  1.7781453384983839  0.0000000000000000  1.7781453384983839
  0.0000000000000000  1.7781453384983839  1.7781453384983839
