Fe 
 1.0000000000000000
     2.3532999999999999    0.0000000000000000    0.0000000000000000
    -1.1766500000000004    2.0380175827259190    0.0000000000000000
     0.0000000000000000    0.0000000000000000    4.1409999999999991
 Fe 
   2
Cartesian
  0.0000000000000000  0.0000000000000000  0.0000000000000000
  0.0000000000000019  1.3586783884839462  2.0705000000000005
