Fe                                      
   1.00000000000000     
     3.6093774689092388    0.0000000000000000    0.0000000000000000
     0.0000000000000000    3.6093774689092388    0.0000000000000000
     0.0000000000000000    0.0000000000000000    3.6093774689092388
   Fe
     4
Direct
  0.0000000000000000  0.0000000000000000  0.0000000000000000
  0.5000000000000000  0.5000000000000000  0.0000000000000000
  0.5000000000000000  0.0000000000000000  0.5000000000000000
  0.0000000000000000  0.5000000000000000  0.5000000000000000
 
  0.00000000E+00  0.00000000E+00  0.00000000E+00
  0.00000000E+00  0.00000000E+00  0.00000000E+00
  0.00000000E+00  0.00000000E+00  0.00000000E+00
  0.00000000E+00  0.00000000E+00  0.00000000E+00
