Fe 
 1.0000000000000000
     2.2601000000000000    0.0000000000000000    0.0000000000000000
    -1.1300500000000004    1.9573040150932095    0.0000000000000000
     0.0000000000000000    0.0000000000000000    4.0565399999999991
 Fe 
   2
Cartesian
  0.0000000000000000  0.0000000000000000  0.0000000000000000
  0.0000000000000003  1.3048693433954732  2.0282700000000000
