Fe                                      
   1.00000000000000     
     2.2368000000000001    0.0000000000000000    0.0000000000000000
    -1.1184000000000005    1.9371256231850320    0.0000000000000000
     0.0000000000000000    0.0000000000000000    3.8966399999999992
   Fe
     2
Direct
  0.0000000000000000  0.0000000000000000  0.0000000000000000
  0.3333333333333357  0.6666666666666643  0.5000000000000000
 
  0.00000000E+00  0.00000000E+00  0.00000000E+00
  0.00000000E+00  0.00000000E+00  0.00000000E+00
