Pd Ir Pt Cu 
 1.0000000000000000
     3.8083515257789382    0.0000000000000000    0.0000000000000000
     0.0000000000000000    3.8083515257789382    0.0000000000000000
     0.0000000000000000    0.0000000000000000    3.8083515257789382
 Pd  Ir  Pt  Cu 
   1   1   1   1
Cartesian
  0.0000000000000000  0.0000000000000000  0.0000000000000000
  1.9041757628894689  1.9041757628894689  0.0000000000000000
  1.9041757628894689  0.0000000000000000  1.9041757628894689
  0.0000000000000000  1.9041757628894689  1.9041757628894689
