Fe                                      
   1.00000000000000     
     2.3532999999999999    0.0000000000000000    0.0000000000000000
    -1.1766500000000004    2.0380175827259190    0.0000000000000000
     0.0000000000000000    0.0000000000000000    4.2652299999999999
   Fe
     2
Direct
  0.0000000000000000  0.0000000000000000  0.0000000000000000
  0.3333333333333357  0.6666666666666643  0.5000000000000000
 
  0.00000000E+00  0.00000000E+00  0.00000000E+00
  0.00000000E+00  0.00000000E+00  0.00000000E+00
