Pd Ir Pt Cu 
 1.0000000000000000
     3.4433200421707810    0.0000000000000000    0.0000000000000000
     0.0000000000000000    3.4433200421707810    0.0000000000000000
     0.0000000000000000    0.0000000000000000    3.4433200421707810
 Pd  Ir  Pt  Cu 
   1   1   1   1
Cartesian
  0.0000000000000000  0.0000000000000000  0.0000000000000000
  1.7216600210853905  1.7216600210853905  0.0000000000000000
  1.7216600210853905  0.0000000000000000  1.7216600210853905
  0.0000000000000000  1.7216600210853905  1.7216600210853905
