Fe 
 1.0000000000000000
     2.3999000000000001    0.0000000000000000    0.0000000000000000
    -1.1999500000000005    2.0783743665422740    0.0000000000000000
     0.0000000000000000    0.0000000000000000    4.3919199999999998
 Fe 
   2
Cartesian
  0.0000000000000000  0.0000000000000000  0.0000000000000000
  0.0000000000000015  1.3855829110281825  2.1959600000000004
