Pd Ir Pt Cu                             
   1.00000000000000     
     3.6946007570219925    0.0000000000000000    0.0000000000000000
     0.0000000000000000    3.6946007570219925    0.0000000000000000
     0.0000000000000000    0.0000000000000000    3.6946007570219925
   Pd   Ir   Pt   Cu
     1     1     1     1
Direct
  0.0000000000000000  0.0000000000000000  0.0000000000000000
  0.5000000000000000  0.5000000000000000  0.0000000000000000
  0.5000000000000000  0.0000000000000000  0.5000000000000000
  0.0000000000000000  0.5000000000000000  0.5000000000000000
 
  0.00000000E+00  0.00000000E+00  0.00000000E+00
  0.00000000E+00  0.00000000E+00  0.00000000E+00
  0.00000000E+00  0.00000000E+00  0.00000000E+00
  0.00000000E+00  0.00000000E+00  0.00000000E+00
