Pd Ir Pt Cu 
 1.0000000000000000
     3.6946007570219925    0.0000000000000000    0.0000000000000000
     0.0000000000000000    3.6946007570219925    0.0000000000000000
     0.0000000000000000    0.0000000000000000    3.6946007570219925
 Pd  Ir  Pt  Cu 
   1   1   1   1
Cartesian
  0.0000000000000000  0.0000000000000000  0.0000000000000000
  1.8473003785109960  1.8473003785109960  0.0000000000000000
  1.8473003785109960  0.0000000000000000  1.8473003785109960
  0.0000000000000000  1.8473003785109960  1.8473003785109960
