Pd Ir Pt Cu 
 1.0000000000000000
     3.5733779260068155    0.0000000000000000    0.0000000000000000
     0.0000000000000000    3.5733779260068155    0.0000000000000000
     0.0000000000000000    0.0000000000000000    3.5733779260068155
 Pd  Ir  Pt  Cu 
   1   1   1   1
Cartesian
  0.0000000000000000  0.0000000000000000  0.0000000000000000
  1.7866889630034077  1.7866889630034077  0.0000000000000000
  1.7866889630034077  0.0000000000000000  1.7866889630034077
  0.0000000000000000  1.7866889630034077  1.7866889630034077
