Pd Ir Pt Cu 
 1.0000000000000000
     3.5095539130414641    0.0000000000000000    0.0000000000000000
     0.0000000000000000    3.5095539130414641    0.0000000000000000
     0.0000000000000000    0.0000000000000000    3.5095539130414641
 Pd  Ir  Pt  Cu 
   1   1   1   1
Cartesian
  0.0000000000000000  0.0000000000000000  0.0000000000000000
  1.7547769565207318  1.7547769565207318  0.0000000000000000
  1.7547769565207318  0.0000000000000000  1.7547769565207318
  0.0000000000000000  1.7547769565207318  1.7547769565207318
