Fe                                      
   1.00000000000000     
     2.3067000000000002    0.0000000000000000    0.0000000000000000
    -1.1533500000000005    1.9976607989095645    0.0000000000000000
     0.0000000000000000    0.0000000000000000    4.2213599999999998
   Fe
     2
Direct
  0.0000000000000000  0.0000000000000000  0.0000000000000000
  0.3333333333333357  0.6666666666666643  0.5000000000000000
 
  0.00000000E+00  0.00000000E+00  0.00000000E+00
  0.00000000E+00  0.00000000E+00  0.00000000E+00
