Fe 
 1.0000000000000000
     3.5015698101247859    0.0000000000000000    0.0000000000000000
     0.0000000000000000    3.5015698101247859    0.0000000000000000
     0.0000000000000000    0.0000000000000000    3.5015698101247859
 Fe 
   4
Cartesian
  0.0000000000000000  0.0000000000000000  0.0000000000000000
  1.7507849050623929  1.7507849050623929  0.0000000000000000
  1.7507849050623929  0.0000000000000000  1.7507849050623929
  0.0000000000000000  1.7507849050623929  1.7507849050623929
