Fe                                      
   1.00000000000000     
     2.3300000000000001    0.0000000000000000    0.0000000000000000
    -1.1650000000000005    2.0178391908177415    0.0000000000000000
     0.0000000000000000    0.0000000000000000    4.2639999999999993
   Fe
     2
Direct
  0.0000000000000000  0.0000000000000000  0.0000000000000000
  0.3333333333333357  0.6666666666666643  0.5000000000000000
 
  0.00000000E+00  0.00000000E+00  0.00000000E+00
  0.00000000E+00  0.00000000E+00  0.00000000E+00
