Cu 
 1.0000000000000000
     3.6349999999999998    0.0000000000000000    0.0000000000000000
     0.0000000000000000    3.6349999999999998    0.0000000000000000
     0.0000000000000000    0.0000000000000000    3.6349999999999998
 Cu 
   4
Cartesian
  0.0000000000000000  0.0000000000000000  0.0000000000000000
  1.8174999999999999  1.8174999999999999  0.0000000000000000
  1.8174999999999999  0.0000000000000000  1.8174999999999999
  0.0000000000000000  1.8174999999999999  1.8174999999999999
