Fe 
 1.0000000000000000
     2.3300000000000001    0.0000000000000000    0.0000000000000000
    -1.1650000000000000    2.0178391908177420    0.0000000000000000
     0.0000000000000000    0.0000000000000000    4.0999999999999996
 Fe 
   2
Cartesian
  0.0000000000000000  0.0000000000000000  0.0000000000000000
  0.0000000000000000  1.3452261272118282  2.0499999999999998
