Fe 
 1.0000000000000000
     3.6093774689092388    0.0000000000000000    0.0000000000000000
     0.0000000000000000    3.6093774689092388    0.0000000000000000
     0.0000000000000000    0.0000000000000000    3.6093774689092388
 Fe 
   4
Cartesian
  0.0000000000000000  0.0000000000000000  0.0000000000000000
  1.8046887344546192  1.8046887344546192  0.0000000000000000
  1.8046887344546192  0.0000000000000000  1.8046887344546192
  0.0000000000000000  1.8046887344546192  1.8046887344546192
