Cu 
 1.0000000000000000
     3.8627638989787911    0.0000000000000000    0.0000000000000000
     0.0000000000000000    3.8627638989787911    0.0000000000000000
     0.0000000000000000    0.0000000000000000    3.8627638989787911
 Cu 
   4
Cartesian
  0.0000000000000000  0.0000000000000000  0.0000000000000000
  1.9313819494893953  1.9313819494893953  0.0000000000000000
  1.9313819494893953  0.0000000000000000  1.9313819494893953
  0.0000000000000000  1.9313819494893953  1.9313819494893953
