Cu 
 1.0000000000000000
     3.4433200421707810    0.0000000000000000    0.0000000000000000
     0.0000000000000000    3.4433200421707810    0.0000000000000000
     0.0000000000000000    0.0000000000000000    3.4433200421707810
 Cu 
   4
Cartesian
  0.0000000000000000  0.0000000000000000  0.0000000000000000
  1.7216600210853905  1.7216600210853905  0.0000000000000000
  1.7216600210853905  0.0000000000000000  1.7216600210853905
  0.0000000000000000  1.7216600210853905  1.7216600210853905
