Fe                                      
   1.00000000000000     
     2.2601000000000000    0.0000000000000000    0.0000000000000000
    -1.1300500000000004    1.9573040150932095    0.0000000000000000
     0.0000000000000000    0.0000000000000000    4.0167700000000002
   Fe
     2
Direct
  0.0000000000000000  0.0000000000000000  0.0000000000000000
  0.3333333333333357  0.6666666666666643  0.5000000000000000
 
  0.00000000E+00  0.00000000E+00  0.00000000E+00
  0.00000000E+00  0.00000000E+00  0.00000000E+00
