Fe 
 1.0000000000000000
     3.4450829999999999    0.0000000000000000    0.0000000000000000
     0.0000000000000000    3.4450829999999999    0.0000000000000000
     0.0000000000000000    0.0000000000000000    3.4450829999999999
 Fe 
   4
Cartesian
  0.0000000000000000  0.0000000000000000  0.0000000000000000
  1.7225414999999999  1.7225414999999999  0.0000000000000000
  1.7225414999999999  0.0000000000000000  1.7225414999999999
  0.0000000000000000  1.7225414999999999  1.7225414999999999
