Cu 
 1.0000000000000000
     3.3744350820364901    0.0000000000000000    0.0000000000000000
     0.0000000000000000    3.3744350820364901    0.0000000000000000
     0.0000000000000000    0.0000000000000000    3.3744350820364901
 Cu 
   4
Cartesian
  0.0000000000000000  0.0000000000000000  0.0000000000000000
  1.6872175410182451  1.6872175410182451  0.0000000000000000
  1.6872175410182451  0.0000000000000000  1.6872175410182451
  0.0000000000000000  1.6872175410182451  1.6872175410182451
